groups = 13;
numShifts = 3;
demand = [| 5, 5, 5, 5, 5, 5, 0,
          | 5, 5, 5, 5, 5, 5, 0,
          | 1, 1, 1, 1, 1, 0, 0 |];
minShift = [2, 2, 2];
maxShift = [6, 6, 4];
minOff = 1;
maxOff = 4;
minOn = 3;
maxOn = 7;
forbidden = [{}, {1}, {1,2}];
forbidden3 = [| 3, 0, 3,
              | 2, 0, 1,
              | 3, 0, 2,
              | 3, 0, 1 |];
